StudentsNr = 10;
InstructorsNr = 28;
DaysNr = 2;
SlotsPerDay = 10;
AvailabilitySlotsLenght = 5;
RoomNr = 1;
ProgrammNr = 1;
DegreeNr = 1;
RolesNr = 3;
CoursesNr = 10;
InstructorsProgramm = [{1}, {1}, {1}, {1}, {1}, {1}, {1}, {1}, {1}, {1}, {1}, {1}, {1}, {1}, {1}, {1}, {1}, {1}, {1}, {1}, {1}, {1}, {1}, {1}, {1}, {1}, {1}, {1}];
InstructorRolesPerProgramm = [|{1, 11, 13, 16, 17, 18, 20, 21, 24}, {1, 5, 9, 14, 16, 17, 18, 22, 23}, {1, 3, 8, 15, 17, 20, 21, 23, 25, 26}|];
InstructorsAvailability = [|0, 1, 1, 1, |0, 1, 1, 1, |0, 1, 1, 1, |0, 1, 1, 1, |0, 1, 1, 1, |0, 0, 1, 1, |0, 1, 1, 1, |0, 1, 1, 1, |0, 1, 1, 1, |0, 0, 1, 1, |0, 1, 1, 0, |0, 1, 1, 1, |0, 1, 1, 0, |1, 1, 1, 1, |0, 0, 0, 0, |0, 1, 1, 1, |0, 1, 1, 1, |1, 1, 1, 1, |0, 0, 1, 1, |1, 1, 1, 0, |1, 1, 1, 1, |1, 1, 0, 1, |1, 1, 1, 1, |0, 1, 1, 1, |0, 1, 1, 1, |0, 1, 1, 1, |0, 0, 1, 0, |0, 0, 1, 1|];
StudentsProgramm = [1, 1, 1, 1, 1, 1, 1, 1, 1, 1];
StudentsDegree = [1, 1, 1, 1, 1, 1, 1, 1, 1, 1];
StudentsSupervisorId = [5, 7, 1, 8, 3, 15, 20, 10, 3, 11];
StudentsCourseIds = [{3, 4, 6, 9}, {1, 5, 7, 10}, {1, 7, 8, 9}, {1, 2, 3, 10}, {2, 3, 6, 7}, {1, 5, 7, 10}, {2, 5, 8, 10}, {1, 2, 3, 5}, {2, 3, 7, 9}, {3, 7, 9, 10}];
StudentsAvailability = [|1, 1, 1, 1, |0, 1, 0, 0, |1, 1, 1, 1, |0, 1, 1, 1, |0, 1, 1, 1, |1, 1, 1, 1, |1, 1, 1, 1, |1, 1, 1, 1, |1, 1, 0, 0, |0, 1, 1, 0|];
TheoryticalMinCard = [0, 0, 0, 0, 0, 0, 0, 0, 0, 0];
CoursesInstructorIds = [{5, 6, 7, 10, 12, 17, 19, 21, 22, 23, 24, 26, 28}, {1, 3, 5, 6, 7, 11, 12, 13, 16, 18, 19, 20, 22, 23, 24, 26, 27}, {1, 11, 23, 25, 27, 28}, {1, 2, 5, 6, 10, 11, 13, 15, 19, 21, 22, 23, 24, 25}, {2, 4, 13, 14, 15, 18, 21, 23}, {1, 5, 13, 20, 22, 25}, {1, 5, 6, 7, 8, 10, 11, 12, 15, 16, 18, 19, 21, 22, 23, 25, 26}, {1, 2, 3, 11, 12, 14, 17, 22, 25, 27, 28}, {2, 15, 21, 26}, {2, 3, 5, 6, 9, 10, 12, 14, 16, 18, 22, 24, 25, 27}];
RolesDemands = [1, 4, 8];
RolesContinuity = [3];
ExamLen = [1, 1, 1, 1, 1, 1, 1, 1, 1, 1];
LunchTsMinLen = 0;
LunchStarts = [4..7, 14..17];
SupervisorAvailable = 5;
OptimalLunchLenght = [1, 0];
OptimalStartTs = [0, 0];
OptimalFinishTs = [1, 10];
MinimizeRooms = 200;
RolesSoftContinuity = [|1, 2, 3|2, 2, 1|];
SameDegreeInRoom = 10;
Mergeability = 1;
